100
32
6
32
16
12
7
6
26
32
32
26
10
30
7
7
27
25
8
24
6
30
5
2
11
1
2
15
11
11
4
1
3
3
3
1
13
19
1
5
3
17
3
1
2
3
3
17
4
2
1
2
6
20
17
4
3
5
1
17
1
2
10
19
1
2
6
2
1
1
3
2
1
5
2
1
16
5
19
1
1
18
2
2
2
3
2
1
26
1
1
18
1
5
1
1
2
1
2
3
3
1